103228
34,57,3,12,23,55,42,25,15,69,78,41,52,39,63,53,4,50,65,31,24,19,5,48,21,18,37,13,73,64,1,10,29,45,46,54,71,66,36,26,80,62,70,14,76,67,20,9,77,58,74,32,82,22,44,68,59,8,83,28,79,6,61,30,2,38,35,75,40,11,16,33,27,7,17,56,51,72,81,43,60,47,49,34